c Random generated cnf formula, satisfiable: true
p cnf 10 50
2 -1 -10 0
2 1 4 0
-8 1 -5 0
-1 -5 9 0
-6 1 -4 0
5 1 -7 0
5 3 4 0
-8 7 4 0
-6 -10 5 0
-2 1 6 0
9 7 1 0
6 1 -4 0
2 8 10 0
2 -10 9 0
-9 1 -7 0
6 1 2 0
-4 -1 -10 0
8 -9 1 0
1 5 -7 0
-5 7 -4 0
-8 -5 -6 0
6 9 5 0
-4 10 2 0
-8 -3 -7 0
7 -5 -10 0
3 10 5 0
1 -6 -5 0
2 -5 -7 0
-10 4 2 0
8 7 6 0
-10 8 9 0
4 2 -6 0
-4 -1 8 0
-6 4 1 0
7 -1 5 0
7 -4 3 0
7 -8 4 0
10 -4 -7 0
9 -1 -2 0
2 -3 8 0
-6 5 -7 0
-1 -9 3 0
-8 5 -9 0
2 10 -7 0
10 6 2 0
-5 3 -7 0
-2 -5 1 0
8 7 6 0
3 9 -6 0
-5 7 2 0
